param n:= 8;

set T:= 
1
2
3
4
5
6
7
8
;

set F:= 
100
120
140
160
180
200
A
B
C
E
;

set P:= 
1
2
3
4
5
6
7
;


set TF[1,1]:=
180
;

set TF[1,2]:=
100
;

set TF[1,3]:=
120
;

set TF[1,4]:=
120
;

set TF[1,5]:=
100
;

set TF[1,6]:=
120
;

set TF[1,7]:=
100
;

set TF[1,8]:=
180
;

set TF[2,1]:=
140
;

set TF[2,2]:=
160
;

set TF[2,3]:=
140
;

set TF[2,4]:=
180
;

set TF[2,5]:=
180
;

set TF[2,6]:=
200
;

set TF[2,7]:=
120
;

set TF[2,8]:=
200
;

set TF[3,1]:=
140
;

set TF[3,2]:=
160
;

set TF[3,3]:=
120
;

set TF[3,4]:=
140
;

set TF[3,5]:=
120
;

set TF[3,6]:=
160
;

set TF[3,7]:=
180
;

set TF[3,8]:=
100
;

set TF[4,1]:=
100
;

set TF[4,2]:=
120
;

set TF[4,3]:=
200
;

set TF[4,4]:=
100
;

set TF[4,5]:=
160
;

set TF[4,6]:=
180
;

set TF[4,7]:=
100
;

set TF[4,8]:=
180
;

set TF[5,1]:=
200
;

set TF[5,2]:=
200
;

set TF[5,3]:=
100
;

set TF[5,4]:=
100
;

set TF[5,5]:=
100
;

set TF[5,6]:=
160
;

set TF[5,7]:=
120
;

set TF[5,8]:=
200
;

set TF[6,1]:=
E
;

set TF[6,2]:=
B
;

set TF[6,3]:=
A
;

set TF[6,4]:=
E
;

set TF[6,5]:=
E
;

set TF[6,6]:=
C
;

set TF[6,7]:=
A
;

set TF[6,8]:=
B
;

set TF[7,1]:=
E
;

set TF[7,2]:=
A
;

set TF[7,3]:=
C
;

set TF[7,4]:=
A
;

set TF[7,5]:=
C
;

set TF[7,6]:=
A
;

set TF[7,7]:=
A
;

set TF[7,8]:=
C
;



